\ Equation counts
\     Total        E        G        L        N        X        C        B
\        20        0        0       20        0        0        0        0
\ 
\ Variable counts
\                  x        b        i      s1s      s2s       sc       si
\     Total     cont   binary  integer     sos1     sos2    scont     sint
\        20        0        0       20        0        0        0        0
\ 
\ Nonzero counts
\     Total    const       NL      DLL
\       181      161       20        0
\ 
Minimize
 obj: - 5.83e-2 i1 - .2318 i2 + 1.08e-2 i3 - .1634 i4 - .138 i5 + .357 i6 - .1953 i7 + .361 i8 - .1824 i9 
  + .162 i10 - .4346 i11 - .1054 i12 + .2376 i13 - 5.9e-3 i14 + .189 i15 - 2.52e-2 i16 - 9.9e-2 i17 - .3604 i18 
  + 2.2e-2 i19 - .3294 i20 + [ 1.1e-3 i1^2 + 3.8e-3 i2^2 + 4e-4 i3^2 + 1.9e-3 i4^2 + 9.2e-3 i5^2 + 7e-3 i6^2 
  + 6.3e-3 i7^2 + 9.5e-3 i8^2 + 9.6e-3 i9^2 + 6e-3 i10^2 + 5.3e-3 i11^2 + 3.4e-3 i12^2 + 2.4e-3 i13^2 
  + 5.9e-3 i14^2 + 6.3e-3 i15^2 + 4.2e-3 i16^2 + 4.5e-3 i17^2 + 6.8e-3 i18^2 + 2e-3 i19^2 + 6.1e-3 i20^2 
  ]/2

Subject To
 e1: 8 i1 + 5 i6 + 4 i7 + 6 i12 + 6 i13 + 9 i14 + 5 i19 + i20 <= 2.2e2
 e2: 3 i1 + 4 i2 + 3 i7 + 7 i8 + 4 i13 + 9 i14 + 3 i15 + 2 i20 <= 175
 e3: 2 i2 + i3 + 6 i8 + 8 i9 + 9 i14 + 9 i15 + 8 i16 <= 215
 e4: 7 i3 + i4 + 7 i9 + 9 i10 + 2 i15 + 4 i16 + 9 i17 <= 195
 e5: 4 i4 + 4 i5 + i10 + 3 i11 + 7 i16 + 2 i17 + 8 i18 <= 145
 e6: 9 i5 + 5 i6 + 5 i11 + 7 i12 + i17 + 4 i18 + 6 i19 <= 185
 e7: 5 i1 + 5 i6 + 3 i7 + 8 i12 + 5 i13 + 9 i18 + 9 i19 + i20 <= 225
 e8: i1 + 9 i2 + 9 i7 + 3 i8 + 9 i13 + 7 i14 + 4 i19 + i20 <= 215
 e9: 3 i1 + 6 i2 + 3 i3 + 4 i8 + 2 i9 + 6 i14 + 3 i15 + 8 i19 + i20 <= 175
 e10: i2 + 2 i3 + 8 i4 + 4 i9 + i10 + 9 i15 + 6 i16 <= 155
 e11: 9 i3 + 3 i4 + 6 i5 + i10 + 6 i11 + 9 i16 + 8 i17 <= 2.1e2
 e12: 6 i4 + 3 i5 + 3 i6 + 6 i11 + 3 i12 + 8 i17 + 9 i18 <= 1.9e2
 e13: 9 i5 + 8 i6 + 2 i7 + 7 i12 + 8 i13 + 4 i18 + 3 i19 <= 205
 e14: 4 i1 + 6 i6 + 9 i7 + i8 + 6 i13 + 9 i14 + 8 i19 + 6 i20 <= 245
 e15: 7 i1 + 3 i2 + 7 i7 + 4 i8 + 2 i9 + i14 + 3 i15 + 5 i20 <= 1.6e2
 e16: 7 i2 + 9 i3 + 7 i8 + 9 i9 + 5 i10 + 2 i15 + 6 i16 <= 225
 e17: 6 i3 + 9 i4 + 8 i9 + 4 i10 + 2 i11 + 6 i16 + 4 i17 <= 195
 e18: 5 i4 + 5 i5 + 7 i10 + 8 i11 + 9 i12 + 8 i17 + 6 i18 <= 2.4e2
 e19: 7 i5 + 5 i6 + 6 i11 + 2 i12 + 8 i13 + 6 i18 + 9 i19 <= 215
 e20: i1 + i2 + i3 + i4 + i5 + i6 + i7 + i8 + i9 + i10 + i11 + i12 + i13 + i14 + i15 + i16 + i17 + i18 
  + i19 + i20 <= 200

Bounds
 i1 <= 100
 i2 <= 100
 i3 <= 100
 i4 <= 100
 i5 <= 100
 i6 <= 100
 i7 <= 100
 i8 <= 100
 i9 <= 100
 i10 <= 100
 i11 <= 100
 i12 <= 100
 i13 <= 100
 i14 <= 100
 i15 <= 100
 i16 <= 100
 i17 <= 100
 i18 <= 100
 i19 <= 100
 i20 <= 100

General
 i1 i2 i3 i4 i5 i6 i7 i8 i9 i10 i11 i12 i13 i14 i15 i16 i17 i18 i19 i20

End
